%int: n; % Número de días
%int: m; % Número de clientes
%array[1..n, 1..m] of int: demand; % Demanda diaria por cliente y día
%array[1..3] of int: costs; % Costos de producción (N, H, T)
%array[1..3] of int: capacities; % Capacidad diaria (N, H, T)
%array[1..m] of int: Ps; % Pago individual por cliente por MW
%float: min_demand_percentage = 0.50; % Porcentaje mínimo de demanda a cubrir
%float: hydro_max_percentage = 0.80; % Porcentaje máximo de capacidad para hidroeléctrica
%int: hydro_max_consecutive_days = 1; % Días consecutivos máximos a ese porcentaje


% Número de días
n = 12;

% Número de clientes
m = 3;

% Demanda diaria por cliente y día (suponiendo doce días y 3 clientes)
demand = [| 700,  710, 720
          | 705,  715, 725
          | 710,  720, 730
          | 715,  725, 735
          | 720,  730, 740
          | 725,  735, 745
          | 730,  740, 750
          | 735,  745, 755
          | 740,  750, 760
          | 745,  755, 765
          | 750,  760, 770
          | 755,  765, 775 |];


% Costos de producción (Nuclear, Hidroeléctrica, Térmica)
costs = [52, 25, 33]; 

% Capacidad diaria (Nuclear, Hidroeléctrica, Térmica)
capacities = [1130, 370, 620];

% Pago individual por cliente por MW (3 clientes)
Ps = [62, 60, 58]; 

% Porcentaje mínimo de demanda a cubrir
min_demand_percentage = 0.65;

% Porcentaje máximo de capacidad para hidroeléctrica
hydro_max_percentage = 0.95;

% Días consecutivos máximos a ese porcentaje
hydro_max_consecutive_days = 1;


